DIMENSION: 32
EDGE_WEIGHT_TYPE: EXPLICIT
EDGE_WEIGHT_FORMAT: FULL_MATRIX
EDGE_WEIGHT_SECTION:
32767 32767 32767 32767 32767 32767 32767 32767 65 32767 74 32767 32767 32767 32767 32767 32767 32767 32767 32767 46 32767 32767 32767 32767 32767 32767 62 53 85 32767 99 
32767 32767 32767 91 63 94 32767 32767 32767 88 23 32767 64 32767 32767 32767 70 32767 32767 32767 32767 89 1 32767 32767 32767 32767 100 32767 32767 70 68 
32767 32767 32767 32767 32767 14 32767 32767 32767 32767 59 32767 9 32767 32767 32767 32767 32767 82 32767 32767 32767 32767 32767 14 44 21 68 66 32767 32767 32767 
32767 91 32767 32767 32767 47 32767 7 32767 32767 32767 13 6 32767 32767 74 32767 39 86 32767 32767 32767 32767 32767 1 32767 32767 32767 32767 32767 32767 46 
32767 63 32767 32767 32767 48 32767 32767 32767 32767 32767 86 32767 32767 32767 22 32767 99 58 32767 64 32767 32767 75 32767 32767 32767 32767 32767 32767 32767 32767 
32767 94 14 47 48 32767 19 69 47 11 93 94 31 23 46 32767 32767 32767 32767 32767 32767 32767 98 32767 57 56 38 32767 36 32767 10 97 
32767 32767 32767 32767 32767 19 32767 32767 32767 35 32767 80 32767 91 32767 32767 91 26 32767 32767 56 61 32767 15 32767 32767 32767 32767 28 32767 32767 31 
32767 32767 32767 7 32767 69 32767 32767 32767 32767 19 32767 66 32767 56 32767 35 32767 90 32767 32767 32767 32767 32767 32767 32767 32767 32767 32767 32767 32767 32767 
65 32767 32767 32767 32767 47 32767 32767 32767 32767 40 42 75 32767 32767 32767 32767 32767 32767 32767 54 58 32767 32767 32767 32767 32767 90 32767 12 32767 32767 
32767 88 32767 32767 32767 11 35 32767 32767 32767 32767 40 32767 32767 32767 32767 77 32767 32767 37 32767 53 17 32767 96 32767 32767 32767 32767 38 32767 55 
74 23 59 32767 32767 93 32767 19 40 32767 32767 32767 3 32767 32767 32767 32767 32767 32767 32767 32767 32767 32767 32767 22 32767 32767 32767 32767 32767 32767 17 
32767 32767 32767 13 86 94 80 32767 42 40 32767 32767 32767 32767 67 32767 32767 32767 67 32767 32767 32767 87 81 41 32767 34 67 32767 32767 32767 32767 
32767 64 9 6 32767 31 32767 66 75 32767 3 32767 32767 41 83 12 37 70 32767 88 32767 73 32767 32767 37 32767 73 85 19 32767 32767 47 
32767 32767 32767 32767 32767 23 91 32767 32767 32767 32767 32767 41 32767 15 32767 32767 32767 32767 32767 55 32767 32767 13 82 32767 32767 32767 9 99 32767 83 
32767 32767 32767 32767 32767 46 32767 56 32767 32767 32767 67 83 15 32767 32767 32767 32767 32767 32767 32767 32767 38 28 30 32767 55 32767 32767 32767 32767 8 
32767 32767 32767 74 22 32767 32767 32767 32767 32767 32767 32767 12 32767 32767 32767 82 32767 66 32767 32767 32767 49 37 32767 32 32767 21 59 32767 57 69 
32767 70 32767 32767 32767 32767 91 35 32767 77 32767 32767 37 32767 32767 82 32767 32767 32767 32767 32767 48 75 91 32767 32767 32767 32767 57 32767 49 32767 
32767 32767 32767 39 99 32767 26 32767 32767 32767 32767 32767 70 32767 32767 32767 32767 32767 32767 32767 32767 96 32767 32767 30 32767 21 32767 32767 45 32767 32767 
32767 32767 82 86 58 32767 32767 90 32767 32767 32767 67 32767 32767 32767 66 32767 32767 32767 32767 32767 63 32767 32767 32767 73 32767 74 32767 85 22 30 
32767 32767 32767 32767 32767 32767 32767 32767 32767 37 32767 32767 88 32767 32767 32767 32767 32767 32767 32767 32767 32767 89 32767 32767 41 32767 32767 12 36 32767 32767 
46 32767 32767 32767 64 32767 56 32767 54 32767 32767 32767 32767 55 32767 32767 32767 32767 32767 32767 32767 89 32767 14 32767 32767 77 32767 85 2 32767 32767 
32767 89 32767 32767 32767 32767 61 32767 58 53 32767 32767 73 32767 32767 32767 48 96 63 32767 89 32767 26 62 32767 55 32767 16 23 37 73 32767 
32767 1 32767 32767 32767 98 32767 32767 32767 17 32767 87 32767 32767 38 49 75 32767 32767 89 32767 26 32767 32767 32767 58 32767 86 32767 32767 32767 32767 
32767 32767 32767 32767 75 32767 15 32767 32767 32767 32767 81 32767 13 28 37 91 32767 32767 32767 14 62 32767 32767 37 32767 14 32767 22 66 43 32767 
32767 32767 14 1 32767 57 32767 32767 32767 96 22 41 37 82 30 32767 32767 30 32767 32767 32767 32767 32767 37 32767 65 32767 32767 32767 4 32767 32767 
32767 32767 44 32767 32767 56 32767 32767 32767 32767 32767 32767 32767 32767 32767 32 32767 32767 73 41 32767 55 58 32767 65 32767 32767 32767 25 15 32767 32767 
32767 32767 21 32767 32767 38 32767 32767 32767 32767 32767 34 73 32767 55 32767 32767 21 32767 32767 77 32767 32767 14 32767 32767 32767 32767 32767 32767 31 32767 
62 100 68 32767 32767 32767 32767 32767 90 32767 32767 67 85 32767 32767 21 32767 32767 74 32767 32767 16 86 32767 32767 32767 32767 32767 94 32767 59 63 
53 32767 66 32767 32767 36 28 32767 32767 32767 32767 32767 19 9 32767 59 57 32767 32767 12 85 23 32767 22 32767 25 32767 94 32767 34 32767 61 
85 32767 32767 32767 32767 32767 32767 32767 12 38 32767 32767 32767 99 32767 32767 32767 45 85 36 2 37 32767 66 4 15 32767 32767 34 32767 88 32767 
32767 70 32767 32767 32767 10 32767 32767 32767 32767 32767 32767 32767 32767 32767 57 49 32767 22 32767 32767 73 32767 43 32767 32767 31 59 32767 88 32767 32767 
99 68 32767 46 32767 97 31 32767 32767 55 17 32767 47 83 8 69 32767 32767 30 32767 32767 32767 32767 32767 32767 32767 32767 63 61 32767 32767 32767 
EOF